p cnf 173 588
1 2 3 
-1 -2 -3 
2 3 4 
-2 -3 -4 
5 6 7 
-5 -6 -7 
6 7 8 
-6 -7 -8 
9 10 11 
-9 -10 -11 
10 11 12 
-10 -11 -12 
13 14 15 
-13 -14 -15 
14 15 16 
-14 -15 -16 
1 5 9 
-1 -5 -9 
5 9 13 
-5 -9 -13 
2 6 10 
-2 -6 -10 
6 10 14 
-6 -10 -14 
3 7 11 
-3 -7 -11 
7 11 15 
-7 -11 -15 
4 8 12 
-4 -8 -12 
8 12 16 
-8 -12 -16 
1 2 3 
1 2 4 
1 3 4 
2 3 4 
5 6 7 
5 6 8 
5 7 8 
6 7 8 
9 10 11 
9 10 12 
9 11 12 
10 11 12 
13 14 15 
13 14 16 
13 15 16 
14 15 16 
-1 -2 -3 
-1 -2 -4 
-1 -3 -4 
-2 -3 -4 
-5 -6 -7 
-5 -6 -8 
-5 -7 -8 
-6 -7 -8 
-9 -10 -11 
-9 -10 -12 
-9 -11 -12 
-10 -11 -12 
-13 -14 -15 
-13 -14 -16 
-13 -15 -16 
-14 -15 -16 
1 5 9 
1 5 13 
1 9 13 
5 9 13 
2 6 10 
2 6 14 
2 10 14 
6 10 14 
3 7 11 
3 7 15 
3 11 15 
7 11 15 
4 8 12 
4 8 16 
4 12 16 
8 12 16 
-1 -5 -9 
-1 -5 -13 
-1 -9 -13 
-5 -9 -13 
-2 -6 -10 
-2 -6 -14 
-2 -10 -14 
-6 -10 -14 
-3 -7 -11 
-3 -7 -15 
-3 -11 -15 
-7 -11 -15 
-4 -8 -12 
-4 -8 -16 
-4 -12 -16 
-8 -12 -16 
-1 -11210 
-5 -11210 
1 5 11210 
1 -11211 
5 -11211 
-1 -5 11211 
-11210 1121 
-11211 1121 
11210 11211 -1121 
-2 -11220 
-6 -11220 
2 6 11220 
2 -11221 
6 -11221 
-2 -6 11221 
-11220 1122 
-11221 1122 
11220 11221 -1122 
-3 -11230 
-7 -11230 
3 7 11230 
3 -11231 
7 -11231 
-3 -7 11231 
-11230 1123 
-11231 1123 
11230 11231 -1123 
-4 -11240 
-8 -11240 
4 8 11240 
4 -11241 
8 -11241 
-4 -8 11241 
-11240 1124 
-11241 1124 
11240 11241 -1124 
-112 -1121 -1122 -1123 -1124 
112 1121 
112 1122 
112 1123 
112 1124 
-1 -11310 
-9 -11310 
1 9 11310 
1 -11311 
9 -11311 
-1 -9 11311 
-11310 1131 
-11311 1131 
11310 11311 -1131 
-2 -11320 
-10 -11320 
2 10 11320 
2 -11321 
10 -11321 
-2 -10 11321 
-11320 1132 
-11321 1132 
11320 11321 -1132 
-3 -11330 
-11 -11330 
3 11 11330 
3 -11331 
11 -11331 
-3 -11 11331 
-11330 1133 
-11331 1133 
11330 11331 -1133 
-4 -11340 
-12 -11340 
4 12 11340 
4 -11341 
12 -11341 
-4 -12 11341 
-11340 1134 
-11341 1134 
11340 11341 -1134 
-113 -1131 -1132 -1133 -1134 
113 1131 
113 1132 
113 1133 
113 1134 
-1 -11410 
-13 -11410 
1 13 11410 
1 -11411 
13 -11411 
-1 -13 11411 
-11410 1141 
-11411 1141 
11410 11411 -1141 
-2 -11420 
-14 -11420 
2 14 11420 
2 -11421 
14 -11421 
-2 -14 11421 
-11420 1142 
-11421 1142 
11420 11421 -1142 
-3 -11430 
-15 -11430 
3 15 11430 
3 -11431 
15 -11431 
-3 -15 11431 
-11430 1143 
-11431 1143 
11430 11431 -1143 
-4 -11440 
-16 -11440 
4 16 11440 
4 -11441 
16 -11441 
-4 -16 11441 
-11440 1144 
-11441 1144 
11440 11441 -1144 
-114 -1141 -1142 -1143 -1144 
114 1141 
114 1142 
114 1143 
114 1144 
-5 -12310 
-9 -12310 
5 9 12310 
5 -12311 
9 -12311 
-5 -9 12311 
-12310 1231 
-12311 1231 
12310 12311 -1231 
-6 -12320 
-10 -12320 
6 10 12320 
6 -12321 
10 -12321 
-6 -10 12321 
-12320 1232 
-12321 1232 
12320 12321 -1232 
-7 -12330 
-11 -12330 
7 11 12330 
7 -12331 
11 -12331 
-7 -11 12331 
-12330 1233 
-12331 1233 
12330 12331 -1233 
-8 -12340 
-12 -12340 
8 12 12340 
8 -12341 
12 -12341 
-8 -12 12341 
-12340 1234 
-12341 1234 
12340 12341 -1234 
-123 -1231 -1232 -1233 -1234 
123 1231 
123 1232 
123 1233 
123 1234 
-5 -12410 
-13 -12410 
5 13 12410 
5 -12411 
13 -12411 
-5 -13 12411 
-12410 1241 
-12411 1241 
12410 12411 -1241 
-6 -12420 
-14 -12420 
6 14 12420 
6 -12421 
14 -12421 
-6 -14 12421 
-12420 1242 
-12421 1242 
12420 12421 -1242 
-7 -12430 
-15 -12430 
7 15 12430 
7 -12431 
15 -12431 
-7 -15 12431 
-12430 1243 
-12431 1243 
12430 12431 -1243 
-8 -12440 
-16 -12440 
8 16 12440 
8 -12441 
16 -12441 
-8 -16 12441 
-12440 1244 
-12441 1244 
12440 12441 -1244 
-124 -1241 -1242 -1243 -1244 
124 1241 
124 1242 
124 1243 
124 1244 
-9 -13410 
-13 -13410 
9 13 13410 
9 -13411 
13 -13411 
-9 -13 13411 
-13410 1341 
-13411 1341 
13410 13411 -1341 
-10 -13420 
-14 -13420 
10 14 13420 
10 -13421 
14 -13421 
-10 -14 13421 
-13420 1342 
-13421 1342 
13420 13421 -1342 
-11 -13430 
-15 -13430 
11 15 13430 
11 -13431 
15 -13431 
-11 -15 13431 
-13430 1343 
-13431 1343 
13430 13431 -1343 
-12 -13440 
-16 -13440 
12 16 13440 
12 -13441 
16 -13441 
-12 -16 13441 
-13440 1344 
-13441 1344 
13440 13441 -1344 
-134 -1341 -1342 -1343 -1344 
134 1341 
134 1342 
134 1343 
134 1344 
-1 -21210 
-2 -21210 
1 2 21210 
1 -21211 
2 -21211 
-1 -2 21211 
-21210 2121 
-21211 2121 
21210 21211 -2121 
-5 -21220 
-6 -21220 
5 6 21220 
5 -21221 
6 -21221 
-5 -6 21221 
-21220 2122 
-21221 2122 
21220 21221 -2122 
-9 -21230 
-10 -21230 
9 10 21230 
9 -21231 
10 -21231 
-9 -10 21231 
-21230 2123 
-21231 2123 
21230 21231 -2123 
-13 -21240 
-14 -21240 
13 14 21240 
13 -21241 
14 -21241 
-13 -14 21241 
-21240 2124 
-21241 2124 
21240 21241 -2124 
-212 -2121 -2122 -2123 -2124 
212 2121 
212 2122 
212 2123 
212 2124 
-1 -21310 
-3 -21310 
1 3 21310 
1 -21311 
3 -21311 
-1 -3 21311 
-21310 2131 
-21311 2131 
21310 21311 -2131 
-5 -21320 
-7 -21320 
5 7 21320 
5 -21321 
7 -21321 
-5 -7 21321 
-21320 2132 
-21321 2132 
21320 21321 -2132 
-9 -21330 
-11 -21330 
9 11 21330 
9 -21331 
11 -21331 
-9 -11 21331 
-21330 2133 
-21331 2133 
21330 21331 -2133 
-13 -21340 
-15 -21340 
13 15 21340 
13 -21341 
15 -21341 
-13 -15 21341 
-21340 2134 
-21341 2134 
21340 21341 -2134 
-213 -2131 -2132 -2133 -2134 
213 2131 
213 2132 
213 2133 
213 2134 
-1 -21410 
-4 -21410 
1 4 21410 
1 -21411 
4 -21411 
-1 -4 21411 
-21410 2141 
-21411 2141 
21410 21411 -2141 
-5 -21420 
-8 -21420 
5 8 21420 
5 -21421 
8 -21421 
-5 -8 21421 
-21420 2142 
-21421 2142 
21420 21421 -2142 
-9 -21430 
-12 -21430 
9 12 21430 
9 -21431 
12 -21431 
-9 -12 21431 
-21430 2143 
-21431 2143 
21430 21431 -2143 
-13 -21440 
-16 -21440 
13 16 21440 
13 -21441 
16 -21441 
-13 -16 21441 
-21440 2144 
-21441 2144 
21440 21441 -2144 
-214 -2141 -2142 -2143 -2144 
214 2141 
214 2142 
214 2143 
214 2144 
-2 -22310 
-3 -22310 
2 3 22310 
2 -22311 
3 -22311 
-2 -3 22311 
-22310 2231 
-22311 2231 
22310 22311 -2231 
-6 -22320 
-7 -22320 
6 7 22320 
6 -22321 
7 -22321 
-6 -7 22321 
-22320 2232 
-22321 2232 
22320 22321 -2232 
-10 -22330 
-11 -22330 
10 11 22330 
10 -22331 
11 -22331 
-10 -11 22331 
-22330 2233 
-22331 2233 
22330 22331 -2233 
-14 -22340 
-15 -22340 
14 15 22340 
14 -22341 
15 -22341 
-14 -15 22341 
-22340 2234 
-22341 2234 
22340 22341 -2234 
-223 -2231 -2232 -2233 -2234 
223 2231 
223 2232 
223 2233 
223 2234 
-2 -22410 
-4 -22410 
2 4 22410 
2 -22411 
4 -22411 
-2 -4 22411 
-22410 2241 
-22411 2241 
22410 22411 -2241 
-6 -22420 
-8 -22420 
6 8 22420 
6 -22421 
8 -22421 
-6 -8 22421 
-22420 2242 
-22421 2242 
22420 22421 -2242 
-10 -22430 
-12 -22430 
10 12 22430 
10 -22431 
12 -22431 
-10 -12 22431 
-22430 2243 
-22431 2243 
22430 22431 -2243 
-14 -22440 
-16 -22440 
14 16 22440 
14 -22441 
16 -22441 
-14 -16 22441 
-22440 2244 
-22441 2244 
22440 22441 -2244 
-224 -2241 -2242 -2243 -2244 
224 2241 
224 2242 
224 2243 
224 2244 
-3 -23410 
-4 -23410 
3 4 23410 
3 -23411 
4 -23411 
-3 -4 23411 
-23410 2341 
-23411 2341 
23410 23411 -2341 
-7 -23420 
-8 -23420 
7 8 23420 
7 -23421 
8 -23421 
-7 -8 23421 
-23420 2342 
-23421 2342 
23420 23421 -2342 
-11 -23430 
-12 -23430 
11 12 23430 
11 -23431 
12 -23431 
-11 -12 23431 
-23430 2343 
-23431 2343 
23430 23431 -2343 
-15 -23440 
-16 -23440 
15 16 23440 
15 -23441 
16 -23441 
-15 -16 23441 
-23440 2344 
-23441 2344 
23440 23441 -2344 
-234 -2341 -2342 -2343 -2344 
234 2341 
234 2342 
234 2343 
234 2344 
